c FILE /home/rafael/Documents/HappySet/MIHS/inputs/happygen/output/graph_scale_free_k10_p0.1_v100_20241127_083906.txt
c SOURCE This is a scale-free graph formed for the happy graph colouring problem.
c DESCRIPTION It was generated using the problem generator of Rhyd Lewis
c
c GRAPH STATS
c Seed                             = 1112239514
c Number of Nodes                  = 100
c Number of colours k              = 10
c Number of pre-assignments        = 10
c Number of links per new node     = 5
c Density                          = 0.0979798
c 
c The degrees of nodes 1 to 100, respectively, are as follows 
c [37, 33, 32, 29, 26, 24, 23, 23, 21, 20, 16, 15, 15, 15, 14, 13, 13, 12, 12, 12, 12, 11, 11, 11, 11, 10, 
c  10, 10, 10, 10, 10, 9, 9, 9, 9, 9, 9, 9, 9, 9, 9, 9, 8, 8, 8, 8, 8, 8, 8, 7, 7, 
c  7, 7, 7, 7, 7, 7, 7, 7, 7, 7, 6, 6, 6, 6, 6, 6, 6, 6, 6, 6, 6, 6, 6, 6, 6, 
c  5, 5, 5, 5, 5, 5, 5, 5, 5, 5, 5, 5, 5, 5, 5, 5, 5, 5, 5, 5, 5, 5, 5, 5] 
c  
p edge 100 485 10
e 1 2
e 1 3
e 1 7
e 1 8
e 1 10
e 1 12
e 1 18
e 1 19
e 1 20
e 1 22
e 1 23
e 1 24
e 1 27
e 1 33
e 1 35
e 1 37
e 1 39
e 1 41
e 1 42
e 1 43
e 1 44
e 1 46
e 1 48
e 1 49
e 1 50
e 1 52
e 1 57
e 1 64
e 1 65
e 1 69
e 1 70
e 1 71
e 1 74
e 1 77
e 1 79
e 1 84
e 1 86
e 2 3
e 2 5
e 2 6
e 2 7
e 2 8
e 2 10
e 2 11
e 2 12
e 2 14
e 2 16
e 2 18
e 2 20
e 2 21
e 2 23
e 2 24
e 2 25
e 2 31
e 2 40
e 2 43
e 2 44
e 2 47
e 2 53
e 2 54
e 2 55
e 2 63
e 2 72
e 2 74
e 2 75
e 2 78
e 2 90
e 2 95
e 2 99
e 3 4
e 3 5
e 3 6
e 3 7
e 3 9
e 3 10
e 3 11
e 3 12
e 3 15
e 3 17
e 3 20
e 3 21
e 3 22
e 3 23
e 3 26
e 3 27
e 3 32
e 3 33
e 3 34
e 3 35
e 3 45
e 3 50
e 3 52
e 3 58
e 3 59
e 3 62
e 3 63
e 3 70
e 3 79
e 3 84
e 4 5
e 4 6
e 4 7
e 4 10
e 4 11
e 4 13
e 4 15
e 4 17
e 4 23
e 4 24
e 4 27
e 4 33
e 4 35
e 4 38
e 4 43
e 4 45
e 4 48
e 4 50
e 4 60
e 4 66
e 4 67
e 4 68
e 4 70
e 4 76
e 4 77
e 4 88
e 4 91
e 4 97
e 5 6
e 5 7
e 5 10
e 5 15
e 5 16
e 5 18
e 5 22
e 5 30
e 5 31
e 5 32
e 5 37
e 5 46
e 5 48
e 5 49
e 5 51
e 5 57
e 5 61
e 5 74
e 5 76
e 5 79
e 5 82
e 5 86
e 5 91
e 6 7
e 6 8
e 6 9
e 6 10
e 6 11
e 6 12
e 6 13
e 6 14
e 6 18
e 6 23
e 6 25
e 6 32
e 6 36
e 6 45
e 6 57
e 6 59
e 6 60
e 6 92
e 6 96
e 6 98
e 7 9
e 7 10
e 7 12
e 7 16
e 7 17
e 7 18
e 7 20
e 7 24
e 7 34
e 7 51
e 7 52
e 7 54
e 7 55
e 7 61
e 7 66
e 7 85
e 7 93
e 8 9
e 8 10
e 8 11
e 8 13
e 8 30
e 8 31
e 8 35
e 8 37
e 8 38
e 8 40
e 8 44
e 8 51
e 8 52
e 8 65
e 8 73
e 8 74
e 8 78
e 8 83
e 8 86
e 8 94
e 9 10
e 9 14
e 9 17
e 9 19
e 9 22
e 9 26
e 9 27
e 9 28
e 9 29
e 9 34
e 9 37
e 9 53
e 9 64
e 9 65
e 9 76
e 9 77
e 9 93
e 10 11
e 10 12
e 10 26
e 10 33
e 10 44
e 10 55
e 10 62
e 10 64
e 10 68
e 10 69
e 10 95
e 11 13
e 11 15
e 11 22
e 11 26
e 11 30
e 11 43
e 11 46
e 11 50
e 11 62
e 11 80
e 12 16
e 12 24
e 12 29
e 12 38
e 12 45
e 12 73
e 12 75
e 12 78
e 12 90
e 13 18
e 13 20
e 13 25
e 13 43
e 13 53
e 13 65
e 13 87
e 13 90
e 13 91
e 13 96
e 13 98
e 14 17
e 14 19
e 14 20
e 14 28
e 14 37
e 14 67
e 14 68
e 14 69
e 14 73
e 14 80
e 14 87
e 14 100
e 15 20
e 15 26
e 15 28
e 15 34
e 15 44
e 15 47
e 15 54
e 15 77
e 15 81
e 15 90
e 16 21
e 16 36
e 16 40
e 16 47
e 16 48
e 16 50
e 16 55
e 16 56
e 16 88
e 17 40
e 17 58
e 17 63
e 17 67
e 17 68
e 17 71
e 17 72
e 17 100
e 18 31
e 18 32
e 18 38
e 18 81
e 18 98
e 18 99
e 19 22
e 19 23
e 19 36
e 19 41
e 19 42
e 19 43
e 19 47
e 19 62
e 19 64
e 20 30
e 20 39
e 20 66
e 20 70
e 20 89
e 21 24
e 21 31
e 21 33
e 21 66
e 21 83
e 21 85
e 21 87
e 21 89
e 21 97
e 22 32
e 22 33
e 22 45
e 22 50
e 22 84
e 23 25
e 23 36
e 23 39
e 23 49
e 23 68
e 24 38
e 24 57
e 24 71
e 24 72
e 24 77
e 25 32
e 25 41
e 25 56
e 25 67
e 25 78
e 25 81
e 25 88
e 26 28
e 26 34
e 26 49
e 26 58
e 26 59
e 27 28
e 27 29
e 27 44
e 27 72
e 27 80
e 27 82
e 28 56
e 28 58
e 28 65
e 28 69
e 28 92
e 29 32
e 29 45
e 29 69
e 29 75
e 29 80
e 29 82
e 29 94
e 30 60
e 30 66
e 30 81
e 30 82
e 30 83
e 30 87
e 31 58
e 31 71
e 31 82
e 31 97
e 31 99
e 32 40
e 32 84
e 33 51
e 33 62
e 33 73
e 34 36
e 34 46
e 34 74
e 34 86
e 35 43
e 35 57
e 35 79
e 35 86
e 35 91
e 36 39
e 36 41
e 36 56
e 36 92
e 37 54
e 37 55
e 37 81
e 37 89
e 38 46
e 38 64
e 38 67
e 38 73
e 39 41
e 39 44
e 39 52
e 39 63
e 39 96
e 40 48
e 40 53
e 40 59
e 40 94
e 41 54
e 41 56
e 41 80
e 41 95
e 42 47
e 42 54
e 42 56
e 42 75
e 42 87
e 42 92
e 42 96
e 43 88
e 44 63
e 45 78
e 45 85
e 46 61
e 46 75
e 46 100
e 47 50
e 47 66
e 47 79
e 48 61
e 48 92
e 48 100
e 49 58
e 49 93
e 49 98
e 49 99
e 51 60
e 51 62
e 51 72
e 52 53
e 52 76
e 53 85
e 53 94
e 54 85
e 55 71
e 55 88
e 56 97
e 57 70
e 57 83
e 58 97
e 59 60
e 59 67
e 59 93
e 60 61
e 60 95
e 61 93
e 61 100
e 63 99
e 64 83
e 65 96
e 68 95
e 69 90
e 70 84
e 71 76
e 72 94
e 73 89
e 74 91
e 75 89
e 76 98
n 2 1
n 30 6
n 36 7
n 37 2
n 57 9
n 61 10
n 73 8
n 76 3
n 85 4
n 96 5
